142127
0,86,43,65,58,9,26,27,57,75,88,92,11,91,22,79,56,82,33,25,49,67,98,99,50,81,71,44,24,85,45,68,97,105,41,80,18,8,7,96,54,28,29,4,51,64,30,12,87,5,39,55,19,15,63,89,16,20,76,21,61,1,32,52,83,48,36,38,72,47,84,10,40,66,53,35,70,94,103,37,104,100,69,93,2,77,59,95,17,6,31,62,74,34,102,60,46,13,73,101,23,3,14,90,78,42,0